127
208
366
253
251
396
350
370
443
268
312
458
22
286
308
389
50
161
109
366
397
232
62
68
297
365
274
203
362
330
357
434
492
336
253
493
497
149
178
227
468
362
309
245
374
229
19
496
57
234
282
79
61
9
45
450
463
95
11
382
25
360
438
265
191
155
476
282
434
20
331
341
81
458
29
344
453
473
32
385
350
330
35
346
311
493
237
174
469
419
456
129
330
27
53
318
444
58
62
305
453
86
327
495
374
348
284
250
38
165
176
288
200
218
46
87
88
443
348
297
271
193
188
292
498
315
411
449
306
